1659178
19,64,44,26,16,57,8,1,47,62,15,58,27,49,35,14,7,67,34,50,38,61,36,52,43,30,13,9,17,56,32,51,21,42,45,33,54,25,65,10,5,24,29,40,63,66,6,37,20,2,60,23,11,41,31,55,39,4,28,59,22,48,18,0,53,12,46,3
